# Components (V)
1 2 3 4 5 6 7 8 9 10 11 12 13 14 15 16 17 18 19 20 21 22 23 24 25 26 27 28 29 30 31 32 33 34 35 36 37 38 39 40 41 42 43 44 45 46 47 48 49 50 51 52 53 54 55 56 57 58 59 60 61 62 63 64 65 66 67 68 69 70 71 72 73 74 75 76 77 78 79 80 81 82 83 84 85 86 87 88 89 90 91 92 93 94 95 96 97 98 99 100 101 102 103 104 105 106 107 108 109 110 111 112 113 114 115 116 117 118 119 120 121 122 123 124 125 126 127 128 129 130 131 132 133 134 135 136 137 138 139 140 141 142 143 144 145 146 147 148 149 150 151 152 153 154 155 156 157 158 159 160 161 162 163 164 165 166 167 168 169 170 171 172 173 174 175 176 177 178 179 180 181 182 183 184 185 186 187 188 189 190 191 192 193 194 195 196 197 198 199 200 201 202 203 204 205 206 207 208 209 210 211 212 213 214 215 216 217 218 219 220 221 222 223 224 225 226 227 228 229 230 231 232 233 234 235 236 237 238 239 240 241 242 243 244 245 246 247 248 249 250 251 252 253 254 255 256 257 258 259 260 261 262 263 264 265 266 267 268 269 270 271 272 273 274 275 276 277 278 279 280 281 282 283 284 285 286 287 288 289 290 291 292 293 294

# Precedence arcs (E)
1 153
2 153
3 153
4 226
5 63
6 63
7 257
9 158
11 24
11 27
11 34
12 30
13 39
14 40
15 33
17 25
17 32
18 36
18 38
19 23
19 26
20 31
20 35
20 37
21 28
22 29
23 153
24 226
25 63
26 63
27 63
28 63
29 257
30 158
31 52
32 45
32 60
33 42
33 49
33 53
33 54
33 99
34 41
34 51
34 59
35 57
36 43
37 46
37 48
37 56
38 47
38 50
38 58
39 44
39 55
41 226
42 226
43 63
44 257
46 62
47 61
47 65
47 76
49 69
53 66
53 74
54 73
55 71
56 67
57 72
59 68
59 70
59 240
60 64
60 75
61 153
62 153
63 78
63 79
63 80
63 81
63 82
63 83
64 158
65 158
67 90
68 88
68 92
68 95
68 96
69 91
70 86
70 98
71 84
71 93
71 94
72 87
72 97
73 85
75 77
76 89
77 153
78 101
78 109
80 111
81 112
81 116
85 102
86 117
87 103
89 115
89 162
90 104
90 105
90 106
92 113
94 100
94 110
94 114
97 107
98 99
98 108
99 153
101 158
103 128
103 129
104 124
104 125
106 120
106 127
109 119
109 131
110 118
111 121
111 130
112 122
115 123
117 126
118 153
119 226
121 158
122 141
122 143
123 133
123 138
123 142
123 145
124 151
125 134
125 150
126 132
126 136
126 139
126 152
127 148
127 149
129 137
129 147
130 146
131 135
131 140
131 144
132 153
133 226
137 158
138 158
139 168
141 155
141 161
144 154
144 164
145 156
145 159
146 163
147 162
147 166
148 160
149 157
151 167
152 165
153 169
153 170
153 171
153 172
153 173
153 174
153 187
154 226
158 175
158 176
158 177
158 178
158 179
158 180
158 186
159 181
162 184
162 185
163 182
163 183
167 188
169 191
169 193
169 201
172 199
172 208
172 209
174 197
178 200
179 206
179 207
181 189
181 194
182 190
183 196
184 192
185 195
187 198
187 202
187 203
188 204
188 205
189 226
197 220
197 223
198 210
200 215
201 213
201 219
202 217
202 221
203 225
204 224
205 216
205 222
206 212
207 214
209 211
209 218
210 226
213 230
213 231
213 232
213 238
213 247
216 240
216 243
217 242
218 244
219 227
220 234
220 236
222 229
222 233
222 235
222 237
222 239
222 241
223 246
223 248
225 228
225 245
226 249
226 250
226 251
226 252
226 253
226 254
226 255
226 256
227 257
230 261
230 267
231 258
233 270
234 263
234 269
239 262
239 265
240 259
241 266
242 264
243 271
248 260
248 268
251 282
252 278
252 284
254 279
255 283
257 272
257 273
257 274
257 275
257 276
257 285
259 287
264 288
265 286
266 280
269 281
269 289
270 277
274 294
275 290
275 291
282 293
287 292

# Target components (T)
262

# Revenues (r)
1 28
2 29
3 23
4 25
5 20
6 25
7 21
8 28
9 23
10 29
11 22
12 28
13 22
14 25
15 25
16 30
17 22
18 21
19 25
20 29
21 30
22 23
23 27
24 26
25 21
26 24
27 24
28 29
29 24
30 30
31 25
32 24
33 24
34 30
35 21
36 21
37 22
38 30
39 28
40 26
41 24
42 22
43 25
44 29
45 22
46 25
47 20
48 25
49 27
50 24
51 27
52 24
53 22
54 26
55 25
56 29
57 20
58 23
59 21
60 24
61 28
62 27
63 27
64 28
65 20
66 26
67 27
68 25
69 23
70 25
71 28
72 27
73 24
74 29
75 27
76 25
77 29
78 24
79 21
80 21
81 30
82 24
83 21
84 27
85 28
86 27
87 22
88 23
89 24
90 23
91 28
92 26
93 20
94 28
95 24
96 22
97 25
98 26
99 22
100 29
101 20
102 26
103 30
104 27
105 27
106 30
107 22
108 26
109 22
110 22
111 20
112 25
113 25
114 30
115 27
116 23
117 26
118 22
119 30
120 23
121 29
122 28
123 26
124 28
125 20
126 20
127 27
128 20
129 29
130 21
131 22
132 30
133 26
134 21
135 20
136 26
137 20
138 30
139 29
140 20
141 29
142 30
143 20
144 26
145 25
146 24
147 27
148 28
149 28
150 29
151 30
152 24
153 22
154 20
155 22
156 30
157 26
158 29
159 25
160 20
161 29
162 20
163 28
164 25
165 22
166 25
167 23
168 27
169 26
170 26
171 26
172 23
173 26
174 26
175 25
176 24
177 22
178 26
179 29
180 23
181 22
182 28
183 27
184 28
185 22
186 22
187 21
188 22
189 30
190 23
191 30
192 24
193 20
194 23
195 23
196 26
197 29
198 24
199 24
200 25
201 29
202 21
203 30
204 30
205 23
206 29
207 25
208 28
209 26
210 30
211 26
212 20
213 21
214 21
215 25
216 27
217 25
218 21
219 23
220 26
221 28
222 24
223 23
224 23
225 30
226 24
227 21
228 23
229 27
230 22
231 24
232 30
233 27
234 23
235 20
236 20
237 29
238 20
239 20
240 22
241 21
242 26
243 29
244 24
245 21
246 25
247 23
248 28
249 30
250 30
251 29
252 20
253 25
254 28
255 22
256 24
257 29
258 28
259 29
260 26
261 27
262 25
263 28
264 28
265 24
266 21
267 30
268 26
269 25
270 28
271 22
272 30
273 20
274 21
275 21
276 23
277 20
278 21
279 24
280 23
281 20
282 22
283 26
284 27
285 22
286 23
287 28
288 29
289 24
290 28
291 25
292 21
293 29
294 30

# Costs (c)
1 7
2 10
3 6
4 10
5 5
6 8
7 5
8 6
9 9
10 5
11 1
12 2
13 6
14 5
15 5
16 2
17 7
18 8
19 7
20 8
21 3
22 2
23 5
24 1
25 9
26 2
27 10
28 10
29 8
30 10
31 6
32 8
33 2
34 10
35 2
36 6
37 5
38 2
39 2
40 5
41 3
42 5
43 9
44 4
45 7
46 2
47 7
48 2
49 4
50 6
51 10
52 5
53 8
54 7
55 3
56 5
57 2
58 9
59 3
60 1
61 2
62 5
63 2
64 1
65 4
66 8
67 1
68 8
69 7
70 9
71 10
72 2
73 3
74 5
75 3
76 3
77 7
78 10
79 8
80 7
81 5
82 10
83 6
84 8
85 2
86 9
87 10
88 9
89 4
90 9
91 8
92 10
93 9
94 3
95 3
96 3
97 9
98 2
99 4
100 10
101 10
102 5
103 2
104 3
105 5
106 4
107 5
108 3
109 1
110 1
111 6
112 8
113 5
114 4
115 10
116 5
117 5
118 2
119 6
120 7
121 4
122 7
123 10
124 3
125 3
126 4
127 9
128 4
129 10
130 6
131 2
132 3
133 2
134 4
135 8
136 9
137 7
138 7
139 7
140 2
141 5
142 6
143 5
144 6
145 7
146 7
147 7
148 2
149 10
150 9
151 9
152 8
153 4
154 3
155 10
156 9
157 1
158 2
159 7
160 5
161 5
162 4
163 7
164 8
165 5
166 3
167 1
168 6
169 4
170 9
171 4
172 2
173 10
174 10
175 9
176 8
177 8
178 2
179 5
180 1
181 3
182 2
183 8
184 4
185 6
186 8
187 1
188 10
189 3
190 9
191 6
192 7
193 1
194 5
195 1
196 3
197 1
198 2
199 10
200 8
201 1
202 9
203 10
204 3
205 9
206 8
207 9
208 1
209 3
210 10
211 1
212 9
213 1
214 6
215 9
216 9
217 4
218 8
219 2
220 1
221 7
222 4
223 4
224 4
225 8
226 7
227 4
228 9
229 10
230 2
231 8
232 6
233 4
234 4
235 3
236 7
237 2
238 6
239 1
240 6
241 5
242 4
243 10
244 7
245 1
246 1
247 2
248 3
249 5
250 8
251 1
252 1
253 5
254 6
255 9
256 6
257 8
258 4
259 5
260 9
261 9
262 10
263 10
264 5
265 1
266 6
267 6
268 7
269 1
270 3
271 2
272 2
273 9
274 6
275 4
276 9
277 3
278 5
279 7
280 5
281 4
282 6
283 1
284 4
285 2
286 2
287 9
288 4
289 3
290 2
291 10
292 4
293 8
294 2

# Durations (p)
1 212
2 173
3 219
4 293
5 211
6 156
7 68
8 197
9 226
10 115
11 52
12 251
13 158
14 22
15 266
16 161
17 149
18 202
19 34
20 54
21 105
22 94
23 29
24 195
25 208
26 270
27 237
28 124
29 279
30 96
31 255
32 159
33 147
34 120
35 131
36 81
37 118
38 26
39 104
40 235
41 158
42 53
43 53
44 89
45 167
46 219
47 146
48 75
49 27
50 144
51 86
52 154
53 228
54 52
55 81
56 55
57 217
58 201
59 66
60 278
61 75
62 151
63 150
64 171
65 180
66 139
67 118
68 56
69 153
70 165
71 92
72 38
73 78
74 66
75 60
76 86
77 85
78 253
79 65
80 25
81 243
82 46
83 118
84 63
85 113
86 131
87 37
88 330
89 217
90 141
91 94
92 101
93 180
94 100
95 252
96 26
97 163
98 82
99 138
100 255
101 95
102 194
103 117
104 124
105 231
106 158
107 51
108 51
109 127
110 46
111 46
112 88
113 188
114 113
115 259
116 55
117 206
118 202
119 195
120 97
121 143
122 104
123 149
124 152
125 138
126 196
127 103
128 200
129 91
130 53
131 190
132 463
133 212
134 75
135 148
136 143
137 33
138 141
139 102
140 67
141 36
142 119
143 72
144 98
145 70
146 28
147 364
148 139
149 228
150 158
151 49
152 205
153 56
154 97
155 255
156 124
157 161
158 25
159 100
160 59
161 182
162 63
163 80
164 44
165 236
166 103
167 31
168 98
169 192
170 33
171 320
172 104
173 22
174 187
175 66
176 116
177 198
178 117
179 66
180 50
181 181
182 230
183 130
184 126
185 159
186 101
187 165
188 66
189 21
190 144
191 64
192 173
193 72
194 167
195 30
196 49
197 91
198 145
199 176
200 268
201 23
202 147
203 296
204 118
205 35
206 176
207 261
208 274
209 232
210 181
211 284
212 119
213 206
214 68
215 180
216 52
217 35
218 243
219 203
220 234
221 28
222 44
223 332
224 185
225 174
226 101
227 86
228 67
229 78
230 151
231 70
232 146
233 38
234 192
235 299
236 45
237 268
238 109
239 142
240 157
241 94
242 51
243 90
244 128
245 157
246 120
247 90
248 231
249 133
250 78
251 125
252 188
253 212
254 24
255 51
256 130
257 48
258 138
259 185
260 236
261 92
262 161
263 133
264 73
265 98
266 44
267 141
268 131
269 81
270 60
271 65
272 153
273 210
274 32
275 108
276 305
277 189
278 107
279 67
280 105
281 208
282 204
283 170
284 62
285 103
286 140
287 78
288 92
289 90
290 54
291 268
292 132
293 30
294 210

orderrules
1 153 au000 avant au152
2 153 au001 avant au152
3 153 au002 avant au152
4 226 au003 avant au225
5 63 au004 avant au062
6 63 au005 avant au062
7 257 au006 avant au256
9 158 au008 avant au157
11 24 au010 avant au023
11 27 au010 avant au026
11 34 au010 avant au033
12 30 au011 avant au029
13 39 au012 avant au038
14 40 au013 avant au039
15 33 au014 avant au032
17 25 au016 avant au024
17 32 au016 avant au031
18 36 au017 avant au035
18 38 au017 avant au037
19 23 au018 avant au022
19 26 au018 avant au025
20 31 au019 avant au030
20 35 au019 avant au034
20 37 au019 avant au036
21 28 au020 avant au027
22 29 au021 avant au028
23 153 au022 avant au152
24 226 au023 avant au225
25 63 au024 avant au062
26 63 au025 avant au062
27 63 au026 avant au062
28 63 au027 avant au062
29 257 au028 avant au256
30 158 au029 avant au157
31 52 au030 avant au051
32 45 au031 avant au044
32 60 au031 avant au059
33 42 au032 avant au041
33 49 au032 avant au048
33 53 au032 avant au052
33 54 au032 avant au053
33 99 au032 avant au098
34 41 au033 avant au040
34 51 au033 avant au050
34 59 au033 avant au058
35 57 au034 avant au056
36 43 au035 avant au042
37 46 au036 avant au045
37 48 au036 avant au047
37 56 au036 avant au055
38 47 au037 avant au046
38 50 au037 avant au049
38 58 au037 avant au057
39 44 au038 avant au043
39 55 au038 avant au054
41 226 au040 avant au225
42 226 au041 avant au225
43 63 au042 avant au062
44 257 au043 avant au256
46 62 au045 avant au061
47 61 au046 avant au060
47 65 au046 avant au064
47 76 au046 avant au075
49 69 au048 avant au068
53 66 au052 avant au065
53 74 au052 avant au073
54 73 au053 avant au072
55 71 au054 avant au070
56 67 au055 avant au066
57 72 au056 avant au071
59 68 au058 avant au067
59 70 au058 avant au069
59 240 au058 avant au239
60 64 au059 avant au063
60 75 au059 avant au074
61 153 au060 avant au152
62 153 au061 avant au152
63 78 au062 avant au077
63 79 au062 avant au078
63 80 au062 avant au079
63 81 au062 avant au080
63 82 au062 avant au081
63 83 au062 avant au082
64 158 au063 avant au157
65 158 au064 avant au157
67 90 au066 avant au089
68 88 au067 avant au087
68 92 au067 avant au091
68 95 au067 avant au094
68 96 au067 avant au095
69 91 au068 avant au090
70 86 au069 avant au085
70 98 au069 avant au097
71 84 au070 avant au083
71 93 au070 avant au092
71 94 au070 avant au093
72 87 au071 avant au086
72 97 au071 avant au096
73 85 au072 avant au084
75 77 au074 avant au076
76 89 au075 avant au088
77 153 au076 avant au152
78 101 au077 avant au100
78 109 au077 avant au108
80 111 au079 avant au110
81 112 au080 avant au111
81 116 au080 avant au115
85 102 au084 avant au101
86 117 au085 avant au116
87 103 au086 avant au102
89 115 au088 avant au114
89 162 au088 avant au161
90 104 au089 avant au103
90 105 au089 avant au104
90 106 au089 avant au105
92 113 au091 avant au112
94 100 au093 avant au099
94 110 au093 avant au109
94 114 au093 avant au113
97 107 au096 avant au106
98 99 au097 avant au098
98 108 au097 avant au107
99 153 au098 avant au152
101 158 au100 avant au157
103 128 au102 avant au127
103 129 au102 avant au128
104 124 au103 avant au123
104 125 au103 avant au124
106 120 au105 avant au119
106 127 au105 avant au126
109 119 au108 avant au118
109 131 au108 avant au130
110 118 au109 avant au117
111 121 au110 avant au120
111 130 au110 avant au129
112 122 au111 avant au121
115 123 au114 avant au122
117 126 au116 avant au125
118 153 au117 avant au152
119 226 au118 avant au225
121 158 au120 avant au157
122 141 au121 avant au140
122 143 au121 avant au142
123 133 au122 avant au132
123 138 au122 avant au137
123 142 au122 avant au141
123 145 au122 avant au144
124 151 au123 avant au150
125 134 au124 avant au133
125 150 au124 avant au149
126 132 au125 avant au131
126 136 au125 avant au135
126 139 au125 avant au138
126 152 au125 avant au151
127 148 au126 avant au147
127 149 au126 avant au148
129 137 au128 avant au136
129 147 au128 avant au146
130 146 au129 avant au145
131 135 au130 avant au134
131 140 au130 avant au139
131 144 au130 avant au143
132 153 au131 avant au152
133 226 au132 avant au225
137 158 au136 avant au157
138 158 au137 avant au157
139 168 au138 avant au167
141 155 au140 avant au154
141 161 au140 avant au160
144 154 au143 avant au153
144 164 au143 avant au163
145 156 au144 avant au155
145 159 au144 avant au158
146 163 au145 avant au162
147 162 au146 avant au161
147 166 au146 avant au165
148 160 au147 avant au159
149 157 au148 avant au156
151 167 au150 avant au166
152 165 au151 avant au164
153 169 au152 avant au168
153 170 au152 avant au169
153 171 au152 avant au170
153 172 au152 avant au171
153 173 au152 avant au172
153 174 au152 avant au173
153 187 au152 avant au186
154 226 au153 avant au225
158 175 au157 avant au174
158 176 au157 avant au175
158 177 au157 avant au176
158 178 au157 avant au177
158 179 au157 avant au178
158 180 au157 avant au179
158 186 au157 avant au185
159 181 au158 avant au180
162 184 au161 avant au183
162 185 au161 avant au184
163 182 au162 avant au181
163 183 au162 avant au182
167 188 au166 avant au187
169 191 au168 avant au190
169 193 au168 avant au192
169 201 au168 avant au200
172 199 au171 avant au198
172 208 au171 avant au207
172 209 au171 avant au208
174 197 au173 avant au196
178 200 au177 avant au199
179 206 au178 avant au205
179 207 au178 avant au206
181 189 au180 avant au188
181 194 au180 avant au193
182 190 au181 avant au189
183 196 au182 avant au195
184 192 au183 avant au191
185 195 au184 avant au194
187 198 au186 avant au197
187 202 au186 avant au201
187 203 au186 avant au202
188 204 au187 avant au203
188 205 au187 avant au204
189 226 au188 avant au225
197 220 au196 avant au219
197 223 au196 avant au222
198 210 au197 avant au209
200 215 au199 avant au214
201 213 au200 avant au212
201 219 au200 avant au218
202 217 au201 avant au216
202 221 au201 avant au220
203 225 au202 avant au224
204 224 au203 avant au223
205 216 au204 avant au215
205 222 au204 avant au221
206 212 au205 avant au211
207 214 au206 avant au213
209 211 au208 avant au210
209 218 au208 avant au217
210 226 au209 avant au225
213 230 au212 avant au229
213 231 au212 avant au230
213 232 au212 avant au231
213 238 au212 avant au237
213 247 au212 avant au246
216 240 au215 avant au239
216 243 au215 avant au242
217 242 au216 avant au241
218 244 au217 avant au243
219 227 au218 avant au226
220 234 au219 avant au233
220 236 au219 avant au235
222 229 au221 avant au228
222 233 au221 avant au232
222 235 au221 avant au234
222 237 au221 avant au236
222 239 au221 avant au238
222 241 au221 avant au240
223 246 au222 avant au245
223 248 au222 avant au247
225 228 au224 avant au227
225 245 au224 avant au244
226 249 au225 avant au248
226 250 au225 avant au249
226 251 au225 avant au250
226 252 au225 avant au251
226 253 au225 avant au252
226 254 au225 avant au253
226 255 au225 avant au254
226 256 au225 avant au255
227 257 au226 avant au256
230 261 au229 avant au260
230 267 au229 avant au266
231 258 au230 avant au257
233 270 au232 avant au269
234 263 au233 avant au262
234 269 au233 avant au268
239 262 au238 avant au261
239 265 au238 avant au264
240 259 au239 avant au258
241 266 au240 avant au265
242 264 au241 avant au263
243 271 au242 avant au270
248 260 au247 avant au259
248 268 au247 avant au267
251 282 au250 avant au281
252 278 au251 avant au277
252 284 au251 avant au283
254 279 au253 avant au278
255 283 au254 avant au282
257 272 au256 avant au271
257 273 au256 avant au272
257 274 au256 avant au273
257 275 au256 avant au274
257 276 au256 avant au275
257 285 au256 avant au284
259 287 au258 avant au286
264 288 au263 avant au287
265 286 au264 avant au285
266 280 au265 avant au279
269 281 au268 avant au280
269 289 au268 avant au288
270 277 au269 avant au276
274 294 au273 avant au293
275 290 au274 avant au289
275 291 au274 avant au290
282 293 au281 avant au292
287 292 au286 avant au291
